# Solution for model lalalala
# Objective value = 1.7097114954872754e+09
C0(4) 0
C1(4) 0
C2(4) 0
C3(4) 0
C4(4) 0
C5(4) 124600
C6(4) 0
C7(4) 0
C8(4) 0
C9(4) 0
C10(4) 0
C11(4) 0
C12(4) 0
C13(4) 0
C14(4) 0
C15(4) 106740
C16(4) 0
C17(4) 0
C18(4) 0
C19(4) 0
C20(4) 0
C21(4) 0
C22(4) 0
C23(4) 0
C24(4) 0
C25(4) 0
C26(4) 0
C27(4) 164300
C28(4) 0
C29(4) 0
C30(4) 5.6442751999999979e+04
C31(4) 0
C32(4) 0
C33(4) 0
C34(4) 0
C35(4) 0
C36(4) 333080
C37(4) 0
C38(4) 0
C39(4) 0
C40(4) 0
C41(4) 0
C42(4) 0
C43(4) 0
C44(4) 0
C45(4) 0
C46(4) 0
C47(4) 0
C48(4) 0
C49(4) 0
C50(4) 0
C51(4) 0
C52(4) 0
C53(4) 0
C54(4) 0
C55(4) 0
C56(4) 0
C57(4) 0
C58(4) 0
C59(4) 0
C60(4) 0
C61(4) 0
C62(4) 0
C63(4) 0
C64(4) 257122
C65(4) 0
C66(4) 0
C67(4) 0
C68(4) 0
C69(4) 0
C70(4) 0
C71(4) 0
C72(4) 0
C73(4) 0
C74(4) 0
C75(4) 0
C76(4) 0
C77(4) 0
C78(4) 0
C79(4) 0
C80(4) 0
C81(4) 0
C82(4) 0
C83(4) 0
C84(4) 0
C85(4) 1.2913103200000012e+04
C86(4) 0
C87(4) 0
C88(4) 0
C89(4) 0
C90(4) 0
C91(4) 0
C92(4) 0
C93(4) 0
C94(4) 217160
C95(4) 0
C96(4) 0
C97(4) 0
C98(4) 0
C99(4) 0
C100(4) 0
C101(4) 0
C102(4) 0
C103(4) 98780
C104(4) 0
C105(4) 0
C106(4) 0
C107(4) 0
C108(4) 0
C109(4) 0
C110(4) 0
C111(4) 0
C112(4) 0
C113(4) 0
C114(4) 320980
C115(4) 0
C116(4) 0
C117(4) 0
C118(4) 0
C119(4) 0
C120(4) 0
C121(4) 0
C122(4) 0
C123(4) 0
C124(4) 0
C125(4) 0
C126(4) 0
C127(4) 0
C128(4) 106048
C129(4) 0
C130(4) 0
C131(4) 0
C132(4) 0
C133(4) 0
C134(4) 405080
C135(4) 0
C136(4) 0
C137(4) 0
C138(4) 0
C139(4) 0
C140(4) 0
C141(4) 237390
C142(4) 0
C143(4) 0
C144(4) 0
C145(4) 0
C146(4) 0
C147(4) 0
C148(4) 0
C149(4) 0
C150(4) 0
C151(4) 0
C152(4) 0
C153(4) 0
C154(4) 0
C155(4) 73612
C156(4) 0
C157(4) 0
C158(4) 0
C159(4) 0
C160(4) 0
C161(4) 0
C162(4) 0
C163(4) 0
C164(4) 0
C165(4) 0
C166(4) 0
C167(4) 0
C168(4) 0
C169(4) 0
C170(4) 0
C171(4) 0
C172(4) 0
C173(4) 6.8967327999999834e+04
C174(4) 1.1728867200000017e+05
C175(4) 0
C176(4) 0
C177(4) 0
C178(4) 508046.128
C179(4) 0
C180(4) 350963.872
C181(4) 0
C182(4) 0
C183(4) 0
C184(4) 0
C185(4) 0
C186(4) 0
C187(4) 0
C188(4) 0
C189(4) 0
C190(4) 0
C191(4) 0
C192(4) 0
C193(4) 0
C194(4) 0
C195(4) 0
C196(4) 0
C197(4) 0
C198(4) 0
C199(4) 0
C200(4) 0
C201(4) 0
C202(4) 0
C203(4) 0
C204(4) 64347
C205(4) 0
C206(4) 0
C207(4) 0
C208(4) 0
C209(4) 0
C210(4) 0
C211(4) 0
C212(4) 0
C213(4) 0
C214(4) 0
C215(4) 0
C216(4) 0
C217(4) 0
C218(4) 104980
C219(4) 0
C220(4) 0
C221(4) 0
C222(4) 0
C223(4) 0
C224(4) 0
C225(4) 0
C226(4) 0
C227(4) 0
C228(4) 0
C229(4) 0
C230(4) 0
C231(4) 0
C232(4) 0
C233(4) 0
C234(4) 0
C235(4) 0
C236(4) 0
C237(4) 0
C238(4) 0
C239(4) 0
C240(4) 0
C241(4) 0
C242(4) 0
C243(4) 0
C244(4) 0
C245(4) 0
C246(4) 102120
C247(4) 0
C248(4) 0
C249(4) 0
C250(4) 0
C251(4) 0
C252(4) 0
C253(4) 0
C254(4) 0
C255(4) 0
C256(4) 0
C257(4) 0
C258(4) 0
C259(4) 0
C260(4) 103844
C261(4) 0
C262(4) 0
C263(4) 0
C264(4) 0
C265(4) 0
C266(4) 0
C267(4) 220960
C268(4) 0
C269(4) 0
C270(4) 0
C271(4) 0
C272(4) 0
C273(4) 0
C274(4) 0
C275(4) 0
C276(4) 0
C277(4) 0
C278(4) 0
C279(4) 0
C280(4) 0
C281(4) 0
C282(4) 0
C283(4) 0
C284(4) 0
C285(4) 0
C286(4) 0
C287(4) 0
C288(4) 71652
C289(4) 0
C290(4) 0
C291(4) 0
C292(4) 0
C293(4) 0
C294(4) 0
C295(4) 0
C296(4) 0
C297(4) 0
C298(4) 0
C299(4) 0
C300(4) 0
C301(4) 0
C302(4) 0
C303(4) 0
C304(4) 0
C305(4) 0
C306(4) 0
C307(4) 0
C308(4) 0
C309(4) 0
C310(4) 0
C311(4) 0
C312(4) 0
C313(4) 0
C314(4) 134340
C315(4) 0
C316(4) 0
C317(4) 0
C318(4) 0
C319(4) 0
C320(4) 0
C321(4) 0
C322(4) 0
C323(4) 0
C324(4) 0
C325(4) 0
C326(4) 0
C327(4) 0
C328(4) 0
C329(4) 0
C330(4) 0
C331(4) 0
C332(4) 0
C333(4) 0
C334(4) 116013.6
C335(4) 0
C336(4) 0
C337(4) 0
C338(4) 0
C339(4) 0
C340(4) 0
C341(4) 0
C342(4) 0
C343(4) 0
C344(4) 0
C345(4) 0
C346(4) 0
C347(4) 0
C348(4) 0
C349(4) 0
C350(4) 2.1017248000000021e+04
C351(4) 0
C352(4) 0
C353(4) 0
C354(4) 0
C355(4) 0
C356(4) 0
C357(4) 0
C358(4) 0
C359(4) 0
C360(4) 0
C361(4) 0
C362(4) 0
C363(4) 0
C364(4) 0
C365(4) 0
C366(4) 78360
C367(4) 0
C368(4) 0
C369(4) 0
C370(4) 0
C371(4) 0
C372(4) 0
C373(4) 0
C374(4) 0
C375(4) 0
C376(4) 1246740
C377(4) 0
C378(4) 0
C379(4) 0
C380(4) 0
C381(4) 0
C382(4) 0
C383(4) 61636
C384(4) 0
C385(4) 0
C386(4) 0
C387(4) 0
C388(4) 0
C389(4) 0
C390(4) 0
C391(4) 0
C392(4) 0
C393(4) 0
C394(4) 0
C395(4) 92008
C396(4) 0
C397(4) 0
C398(4) 0
C399(4) 201246
C400(4) 0
C401(4) 0
C402(4) 0
C403(4) 0
C404(4) 0
C405(4) 0
C406(4) 0
C407(4) 5.3774896799999988e+04
C408(4) 0
C409(4) 0
C410(4) 0
C411(4) 0
C412(4) 0
C413(4) 0
C414(4) 0
C415(4) 0
C416(4) 0
C417(4) 0
C418(4) 0
C419(4) 0
C420(4) 0
C421(4) 0
C422(4) 0
C423(4) 0
C424(4) 0
C425(4) 0
C426(4) 0
C427(4) 0
C428(4) 0
C429(4) 0
C430(4) 0
C431(4) 0
C432(4) 84780
C433(4) 0
C434(4) 0
C435(4) 0
C436(4) 0
C437(4) 0
C438(4) 0
C439(4) 0
C440(4) 0
C441(4) 0
C442(4) 0
C443(4) 0
C444(4) 261880
C445(4) 0
C446(4) 0
C447(4) 0
C448(4) 0
C449(4) 0
C450(4) 0
C451(4) 0
C452(4) 0
C453(4) 0
C454(4) 0
C455(4) 0
C456(4) 0
C457(4) 0
C458(4) 0
C459(4) 0
C460(4) 0
C461(4) 0
C462(4) 0
C463(4) 0
C464(4) 0
C465(4) 0
C466(4) 0
C467(4) 0
C468(4) 0
C469(4) 0
C470(4) 0
C471(4) 0
C472(4) 0
C473(4) 0
C474(4) 395796
C475(4) 0
C476(4) 0
C477(4) 0
C478(4) 0
C479(4) 0
C480(4) 0
C481(4) 0
C482(4) 0
C483(4) 80490
C484(4) 0
C485(4) 0
C486(4) 0
C487(4) 0
C488(4) 0
C489(4) 0
C490(4) 0
C491(4) 0
C492(4) 0
C493(4) 0
C494(4) 0
C495(4) 0
C496(4) 0
C497(4) 0
C498(4) 0
C499(4) 0
C500(4) 0
C501(4) 0
C502(4) 0
C503(4) 0
C504(4) 0
C505(4) 0
C506(4) 0
C507(4) 0
C508(4) 0
C509(4) 207700
C510(4) 0
C511(4) 0
C512(4) 0
C513(4) 0
C514(4) 0
C515(4) 0
C516(4) 79362.8
C517(4) 0
C518(4) 0
C519(4) 0
C520(4) 0
C521(4) 63710
C522(4) 0
C523(4) 0
C524(4) 0
C525(4) 0
C526(4) 0
C527(4) 0
C528(4) 0
C529(4) 0
C530(4) 0
C531(4) 0
C532(4) 0
C533(4) 0
C534(4) 0
C535(4) 0
C536(4) 0
C537(4) 173580
C538(4) 0
C539(4) 0
C540(4) 0
C541(4) 0
C542(4) 0
C543(4) 0
C544(4) 0
C545(4) 0
C546(4) 348210
C547(4) 0
C548(4) 0
C549(4) 0
C550(4) 0
C551(4) 0
C552(4) 0
C553(4) 0
C554(4) 101456.7856
C555(4) 0
C556(4) 41699.2144
C557(4) 0
C558(4) 0
C559(4) 0
C560(4) 0
C561(4) 0
C562(4) 0
C563(4) 0
C564(4) 0
C565(4) 164364
C566(4) 0
C567(4) 0
C568(4) 0
C569(4) 0
C570(4) 0
C571(4) 0
C572(4) 0
C573(4) 0
C574(4) 0
C575(4) 122764
C576(4) 0
C577(4) 0
C578(4) 0
C579(4) 0
C580(4) 0
C581(4) 0
C582(4) 0
C583(4) 0
C584(4) 0
C585(4) 0
C586(4) 0
C587(4) 0
C588(4) 0
C589(4) 0
C590(4) 0
C591(4) 0
C592(4) 0
C593(4) 0
C594(4) 0
C595(4) 4.9727978800000006e+05
C596(4) 0
C597(4) 0
C598(4) 0
C599(4) 0
C600(4) 5.6014021199999994e+05
C601(4) 0
C602(4) 0
C603(4) 0
C604(4) 0
C605(4) 0
C606(4) 0
C607(4) 130342
C608(4) 0
C609(4) 0
C610(4) 0
C611(4) 0
C612(4) 0
C613(4) 0
C614(4) 0
C615(4) 0
C616(4) 0
C617(4) 0
C618(4) 0
C619(4) 0
C620(4) 0
C621(4) 114216
C622(4) 0
C623(4) 0
C624(4) 0
C625(4) 0
C626(4) 0
C627(4) 0
C628(4) 86420
C629(4) 0
C630(4) 0
C631(4) 0
C632(4) 0
C633(4) 0
C634(4) 0
C635(4) 0
C636(4) 0
C637(4) 0
C638(4) 0
C639(4) 0
C640(4) 0
C641(4) 0
C642(4) 459468
C643(4) 0
C644(4) 0
C645(4) 0
C646(4) 0
C647(4) 0
C648(4) 0
C649(4) 0
C650(4) 0
C651(4) 1148243.036
C652(4) 277995.6824
C653(4) 0
C654(4) 0
C655(4) 0
C656(4) 2402437.8904
C657(4) 0
C658(4) 0
C659(4) 0
C660(4) 0
C661(4) 0
C662(4) 0
C663(4) 0
C664(4) 0
C665(4) 0
C666(4) 0
C667(4) 0
C668(4) 0
C669(4) 0
C670(4) 0
C671(4) 0
C672(4) 0
C673(4) 0
C674(4) 78360
C675(4) 459297.2144
C676(4) 0
C677(4) 1396225.7936
C678(4) 0
C679(4) 0
C680(4) 0
C681(4) 0
C682(4) 0
C683(4) 0
C684(4) 8.1894928000000218e+04
C685(4) 0
C686(4) 0
C687(4) 0
C688(4) 0
C689(4) 0
C690(4) 0
C691(4) 0
C692(4) 0
C693(2) 0
C694(2) 5.9225167119999994e+06
C695(2) 483470.752
C696(2) 725206.128
C697(2) 1933883.008
C698(2) 725206.128
C699(2) 4.1592867200000014e+05
